p cnf 54 990
1 2 3 0
4 5 6 0
7 8 9 0
10 11 12 0
13 14 15 0
16 17 18 0
19 20 21 0
22 23 24 0
25 26 27 0
28 29 30 0
31 32 33 0
34 35 36 0
37 38 39 0
40 41 42 0
43 44 45 0
46 47 48 0
49 50 51 0
52 53 54 0
-1 -2 0
-1 -3 0
-2 -3 0
-4 -5 0
-4 -6 0
-5 -6 0
-7 -8 0
-7 -9 0
-8 -9 0
-10 -11 0
-10 -12 0
-11 -12 0
-13 -14 0
-13 -15 0
-14 -15 0
-16 -17 0
-16 -18 0
-17 -18 0
-19 -20 0
-19 -21 0
-20 -21 0
-22 -23 0
-22 -24 0
-23 -24 0
-25 -26 0
-25 -27 0
-26 -27 0
-28 -29 0
-28 -30 0
-29 -30 0
-31 -32 0
-31 -33 0
-32 -33 0
-34 -35 0
-34 -36 0
-35 -36 0
-37 -38 0
-37 -39 0
-38 -39 0
-40 -41 0
-40 -42 0
-41 -42 0
-43 -44 0
-43 -45 0
-44 -45 0
-46 -47 0
-46 -48 0
-47 -48 0
-49 -50 0
-49 -51 0
-50 -51 0
-52 -53 0
-52 -54 0
-53 -54 0
-1 5 6 0
-2 4 6 0
-3 4 5 0
-1 7 8 9 0
-2 7 8 9 0
-3 7 8 9 0
-1 10 11 12 0
-2 10 11 12 0
-3 10 11 12 0
-1 13 14 15 0
-2 13 14 15 0
-3 13 14 15 0
-1 16 17 18 0
-2 16 17 18 0
-3 16 17 18 0
-1 19 20 21 0
-2 19 20 21 0
-3 19 20 21 0
-1 22 23 24 0
-2 22 23 24 0
-3 22 23 24 0
-1 26 27 0
-2 25 27 0
-3 25 26 0
-1 28 29 30 0
-2 28 29 30 0
-3 28 29 30 0
-1 32 33 0
-2 31 33 0
-3 31 32 0
-1 34 35 36 0
-2 34 35 36 0
-3 34 35 36 0
-1 37 38 39 0
-2 37 38 39 0
-3 37 38 39 0
-1 40 41 42 0
-2 40 41 42 0
-3 40 41 42 0
-1 44 45 0
-2 43 45 0
-3 43 44 0
-1 47 48 0
-2 46 48 0
-3 46 47 0
-1 49 50 51 0
-2 49 50 51 0
-3 49 50 51 0
-1 52 53 54 0
-2 52 53 54 0
-3 52 53 54 0
-4 2 3 0
-5 1 3 0
-6 1 2 0
-4 8 9 0
-5 7 9 0
-6 7 8 0
-4 10 11 12 0
-5 10 11 12 0
-6 10 11 12 0
-4 14 15 0
-5 13 15 0
-6 13 14 0
-4 16 17 18 0
-5 16 17 18 0
-6 16 17 18 0
-4 19 20 21 0
-5 19 20 21 0
-6 19 20 21 0
-4 22 23 24 0
-5 22 23 24 0
-6 22 23 24 0
-4 26 27 0
-5 25 27 0
-6 25 26 0
-4 28 29 30 0
-5 28 29 30 0
-6 28 29 30 0
-4 31 32 33 0
-5 31 32 33 0
-6 31 32 33 0
-4 34 35 36 0
-5 34 35 36 0
-6 34 35 36 0
-4 38 39 0
-5 37 39 0
-6 37 38 0
-4 40 41 42 0
-5 40 41 42 0
-6 40 41 42 0
-4 44 45 0
-5 43 45 0
-6 43 44 0
-4 46 47 48 0
-5 46 47 48 0
-6 46 47 48 0
-4 50 51 0
-5 49 51 0
-6 49 50 0
-4 52 53 54 0
-5 52 53 54 0
-6 52 53 54 0
-7 1 2 3 0
-8 1 2 3 0
-9 1 2 3 0
-7 5 6 0
-8 4 6 0
-9 4 5 0
-7 11 12 0
-8 10 12 0
-9 10 11 0
-7 13 14 15 0
-8 13 14 15 0
-9 13 14 15 0
-7 16 17 18 0
-8 16 17 18 0
-9 16 17 18 0
-7 19 20 21 0
-8 19 20 21 0
-9 19 20 21 0
-7 23 24 0
-8 22 24 0
-9 22 23 0
-7 25 26 27 0
-8 25 26 27 0
-9 25 26 27 0
-7 28 29 30 0
-8 28 29 30 0
-9 28 29 30 0
-7 32 33 0
-8 31 33 0
-9 31 32 0
-7 34 35 36 0
-8 34 35 36 0
-9 34 35 36 0
-7 38 39 0
-8 37 39 0
-9 37 38 0
-7 40 41 42 0
-8 40 41 42 0
-9 40 41 42 0
-7 44 45 0
-8 43 45 0
-9 43 44 0
-7 46 47 48 0
-8 46 47 48 0
-9 46 47 48 0
-7 49 50 51 0
-8 49 50 51 0
-9 49 50 51 0
-7 52 53 54 0
-8 52 53 54 0
-9 52 53 54 0
-10 1 2 3 0
-11 1 2 3 0
-12 1 2 3 0
-10 4 5 6 0
-11 4 5 6 0
-12 4 5 6 0
-10 8 9 0
-11 7 9 0
-12 7 8 0
-10 13 14 15 0
-11 13 14 15 0
-12 13 14 15 0
-10 16 17 18 0
-11 16 17 18 0
-12 16 17 18 0
-10 19 20 21 0
-11 19 20 21 0
-12 19 20 21 0
-10 22 23 24 0
-11 22 23 24 0
-12 22 23 24 0
-10 25 26 27 0
-11 25 26 27 0
-12 25 26 27 0
-10 28 29 30 0
-11 28 29 30 0
-12 28 29 30 0
-10 31 32 33 0
-11 31 32 33 0
-12 31 32 33 0
-10 34 35 36 0
-11 34 35 36 0
-12 34 35 36 0
-10 37 38 39 0
-11 37 38 39 0
-12 37 38 39 0
-10 40 41 42 0
-11 40 41 42 0
-12 40 41 42 0
-10 44 45 0
-11 43 45 0
-12 43 44 0
-10 46 47 48 0
-11 46 47 48 0
-12 46 47 48 0
-10 50 51 0
-11 49 51 0
-12 49 50 0
-10 52 53 54 0
-11 52 53 54 0
-12 52 53 54 0
-13 1 2 3 0
-14 1 2 3 0
-15 1 2 3 0
-13 5 6 0
-14 4 6 0
-15 4 5 0
-13 7 8 9 0
-14 7 8 9 0
-15 7 8 9 0
-13 10 11 12 0
-14 10 11 12 0
-15 10 11 12 0
-13 17 18 0
-14 16 18 0
-15 16 17 0
-13 19 20 21 0
-14 19 20 21 0
-15 19 20 21 0
-13 23 24 0
-14 22 24 0
-15 22 23 0
-13 25 26 27 0
-14 25 26 27 0
-15 25 26 27 0
-13 28 29 30 0
-14 28 29 30 0
-15 28 29 30 0
-13 32 33 0
-14 31 33 0
-15 31 32 0
-13 35 36 0
-14 34 36 0
-15 34 35 0
-13 37 38 39 0
-14 37 38 39 0
-15 37 38 39 0
-13 40 41 42 0
-14 40 41 42 0
-15 40 41 42 0
-13 43 44 45 0
-14 43 44 45 0
-15 43 44 45 0
-13 46 47 48 0
-14 46 47 48 0
-15 46 47 48 0
-13 49 50 51 0
-14 49 50 51 0
-15 49 50 51 0
-13 53 54 0
-14 52 54 0
-15 52 53 0
-16 1 2 3 0
-17 1 2 3 0
-18 1 2 3 0
-16 4 5 6 0
-17 4 5 6 0
-18 4 5 6 0
-16 7 8 9 0
-17 7 8 9 0
-18 7 8 9 0
-16 10 11 12 0
-17 10 11 12 0
-18 10 11 12 0
-16 14 15 0
-17 13 15 0
-18 13 14 0
-16 20 21 0
-17 19 21 0
-18 19 20 0
-16 22 23 24 0
-17 22 23 24 0
-18 22 23 24 0
-16 26 27 0
-17 25 27 0
-18 25 26 0
-16 28 29 30 0
-17 28 29 30 0
-18 28 29 30 0
-16 32 33 0
-17 31 33 0
-18 31 32 0
-16 34 35 36 0
-17 34 35 36 0
-18 34 35 36 0
-16 37 38 39 0
-17 37 38 39 0
-18 37 38 39 0
-16 41 42 0
-17 40 42 0
-18 40 41 0
-16 43 44 45 0
-17 43 44 45 0
-18 43 44 45 0
-16 47 48 0
-17 46 48 0
-18 46 47 0
-16 49 50 51 0
-17 49 50 51 0
-18 49 50 51 0
-16 52 53 54 0
-17 52 53 54 0
-18 52 53 54 0
-19 1 2 3 0
-20 1 2 3 0
-21 1 2 3 0
-19 4 5 6 0
-20 4 5 6 0
-21 4 5 6 0
-19 7 8 9 0
-20 7 8 9 0
-21 7 8 9 0
-19 10 11 12 0
-20 10 11 12 0
-21 10 11 12 0
-19 13 14 15 0
-20 13 14 15 0
-21 13 14 15 0
-19 17 18 0
-20 16 18 0
-21 16 17 0
-19 22 23 24 0
-20 22 23 24 0
-21 22 23 24 0
-19 25 26 27 0
-20 25 26 27 0
-21 25 26 27 0
-19 28 29 30 0
-20 28 29 30 0
-21 28 29 30 0
-19 31 32 33 0
-20 31 32 33 0
-21 31 32 33 0
-19 35 36 0
-20 34 36 0
-21 34 35 0
-19 37 38 39 0
-20 37 38 39 0
-21 37 38 39 0
-19 41 42 0
-20 40 42 0
-21 40 41 0
-19 44 45 0
-20 43 45 0
-21 43 44 0
-19 46 47 48 0
-20 46 47 48 0
-21 46 47 48 0
-19 49 50 51 0
-20 49 50 51 0
-21 49 50 51 0
-19 52 53 54 0
-20 52 53 54 0
-21 52 53 54 0
-22 1 2 3 0
-23 1 2 3 0
-24 1 2 3 0
-22 4 5 6 0
-23 4 5 6 0
-24 4 5 6 0
-22 8 9 0
-23 7 9 0
-24 7 8 0
-22 10 11 12 0
-23 10 11 12 0
-24 10 11 12 0
-22 14 15 0
-23 13 15 0
-24 13 14 0
-22 16 17 18 0
-23 16 17 18 0
-24 16 17 18 0
-22 19 20 21 0
-23 19 20 21 0
-24 19 20 21 0
-22 25 26 27 0
-23 25 26 27 0
-24 25 26 27 0
-22 28 29 30 0
-23 28 29 30 0
-24 28 29 30 0
-22 31 32 33 0
-23 31 32 33 0
-24 31 32 33 0
-22 35 36 0
-23 34 36 0
-24 34 35 0
-22 38 39 0
-23 37 39 0
-24 37 38 0
-22 40 41 42 0
-23 40 41 42 0
-24 40 41 42 0
-22 43 44 45 0
-23 43 44 45 0
-24 43 44 45 0
-22 46 47 48 0
-23 46 47 48 0
-24 46 47 48 0
-22 50 51 0
-23 49 51 0
-24 49 50 0
-22 53 54 0
-23 52 54 0
-24 52 53 0
-25 2 3 0
-26 1 3 0
-27 1 2 0
-25 5 6 0
-26 4 6 0
-27 4 5 0
-25 7 8 9 0
-26 7 8 9 0
-27 7 8 9 0
-25 10 11 12 0
-26 10 11 12 0
-27 10 11 12 0
-25 13 14 15 0
-26 13 14 15 0
-27 13 14 15 0
-25 17 18 0
-26 16 18 0
-27 16 17 0
-25 19 20 21 0
-26 19 20 21 0
-27 19 20 21 0
-25 22 23 24 0
-26 22 23 24 0
-27 22 23 24 0
-25 28 29 30 0
-26 28 29 30 0
-27 28 29 30 0
-25 31 32 33 0
-26 31 32 33 0
-27 31 32 33 0
-25 35 36 0
-26 34 36 0
-27 34 35 0
-25 37 38 39 0
-26 37 38 39 0
-27 37 38 39 0
-25 40 41 42 0
-26 40 41 42 0
-27 40 41 42 0
-25 43 44 45 0
-26 43 44 45 0
-27 43 44 45 0
-25 46 47 48 0
-26 46 47 48 0
-27 46 47 48 0
-25 49 50 51 0
-26 49 50 51 0
-27 49 50 51 0
-25 52 53 54 0
-26 52 53 54 0
-27 52 53 54 0
-28 1 2 3 0
-29 1 2 3 0
-30 1 2 3 0
-28 4 5 6 0
-29 4 5 6 0
-30 4 5 6 0
-28 7 8 9 0
-29 7 8 9 0
-30 7 8 9 0
-28 10 11 12 0
-29 10 11 12 0
-30 10 11 12 0
-28 13 14 15 0
-29 13 14 15 0
-30 13 14 15 0
-28 16 17 18 0
-29 16 17 18 0
-30 16 17 18 0
-28 19 20 21 0
-29 19 20 21 0
-30 19 20 21 0
-28 22 23 24 0
-29 22 23 24 0
-30 22 23 24 0
-28 25 26 27 0
-29 25 26 27 0
-30 25 26 27 0
-28 31 32 33 0
-29 31 32 33 0
-30 31 32 33 0
-28 34 35 36 0
-29 34 35 36 0
-30 34 35 36 0
-28 37 38 39 0
-29 37 38 39 0
-30 37 38 39 0
-28 40 41 42 0
-29 40 41 42 0
-30 40 41 42 0
-28 44 45 0
-29 43 45 0
-30 43 44 0
-28 46 47 48 0
-29 46 47 48 0
-30 46 47 48 0
-28 49 50 51 0
-29 49 50 51 0
-30 49 50 51 0
-28 52 53 54 0
-29 52 53 54 0
-30 52 53 54 0
-31 2 3 0
-32 1 3 0
-33 1 2 0
-31 4 5 6 0
-32 4 5 6 0
-33 4 5 6 0
-31 8 9 0
-32 7 9 0
-33 7 8 0
-31 10 11 12 0
-32 10 11 12 0
-33 10 11 12 0
-31 14 15 0
-32 13 15 0
-33 13 14 0
-31 17 18 0
-32 16 18 0
-33 16 17 0
-31 19 20 21 0
-32 19 20 21 0
-33 19 20 21 0
-31 22 23 24 0
-32 22 23 24 0
-33 22 23 24 0
-31 25 26 27 0
-32 25 26 27 0
-33 25 26 27 0
-31 28 29 30 0
-32 28 29 30 0
-33 28 29 30 0
-31 34 35 36 0
-32 34 35 36 0
-33 34 35 36 0
-31 37 38 39 0
-32 37 38 39 0
-33 37 38 39 0
-31 40 41 42 0
-32 40 41 42 0
-33 40 41 42 0
-31 44 45 0
-32 43 45 0
-33 43 44 0
-31 46 47 48 0
-32 46 47 48 0
-33 46 47 48 0
-31 50 51 0
-32 49 51 0
-33 49 50 0
-31 52 53 54 0
-32 52 53 54 0
-33 52 53 54 0
-34 1 2 3 0
-35 1 2 3 0
-36 1 2 3 0
-34 4 5 6 0
-35 4 5 6 0
-36 4 5 6 0
-34 7 8 9 0
-35 7 8 9 0
-36 7 8 9 0
-34 10 11 12 0
-35 10 11 12 0
-36 10 11 12 0
-34 14 15 0
-35 13 15 0
-36 13 14 0
-34 16 17 18 0
-35 16 17 18 0
-36 16 17 18 0
-34 20 21 0
-35 19 21 0
-36 19 20 0
-34 23 24 0
-35 22 24 0
-36 22 23 0
-34 26 27 0
-35 25 27 0
-36 25 26 0
-34 28 29 30 0
-35 28 29 30 0
-36 28 29 30 0
-34 31 32 33 0
-35 31 32 33 0
-36 31 32 33 0
-34 38 39 0
-35 37 39 0
-36 37 38 0
-34 41 42 0
-35 40 42 0
-36 40 41 0
-34 43 44 45 0
-35 43 44 45 0
-36 43 44 45 0
-34 46 47 48 0
-35 46 47 48 0
-36 46 47 48 0
-34 49 50 51 0
-35 49 50 51 0
-36 49 50 51 0
-34 52 53 54 0
-35 52 53 54 0
-36 52 53 54 0
-37 1 2 3 0
-38 1 2 3 0
-39 1 2 3 0
-37 5 6 0
-38 4 6 0
-39 4 5 0
-37 8 9 0
-38 7 9 0
-39 7 8 0
-37 10 11 12 0
-38 10 11 12 0
-39 10 11 12 0
-37 13 14 15 0
-38 13 14 15 0
-39 13 14 15 0
-37 16 17 18 0
-38 16 17 18 0
-39 16 17 18 0
-37 19 20 21 0
-38 19 20 21 0
-39 19 20 21 0
-37 23 24 0
-38 22 24 0
-39 22 23 0
-37 25 26 27 0
-38 25 26 27 0
-39 25 26 27 0
-37 28 29 30 0
-38 28 29 30 0
-39 28 29 30 0
-37 31 32 33 0
-38 31 32 33 0
-39 31 32 33 0
-37 35 36 0
-38 34 36 0
-39 34 35 0
-37 40 41 42 0
-38 40 41 42 0
-39 40 41 42 0
-37 43 44 45 0
-38 43 44 45 0
-39 43 44 45 0
-37 46 47 48 0
-38 46 47 48 0
-39 46 47 48 0
-37 49 50 51 0
-38 49 50 51 0
-39 49 50 51 0
-37 53 54 0
-38 52 54 0
-39 52 53 0
-40 1 2 3 0
-41 1 2 3 0
-42 1 2 3 0
-40 4 5 6 0
-41 4 5 6 0
-42 4 5 6 0
-40 7 8 9 0
-41 7 8 9 0
-42 7 8 9 0
-40 10 11 12 0
-41 10 11 12 0
-42 10 11 12 0
-40 13 14 15 0
-41 13 14 15 0
-42 13 14 15 0
-40 17 18 0
-41 16 18 0
-42 16 17 0
-40 20 21 0
-41 19 21 0
-42 19 20 0
-40 22 23 24 0
-41 22 23 24 0
-42 22 23 24 0
-40 25 26 27 0
-41 25 26 27 0
-42 25 26 27 0
-40 28 29 30 0
-41 28 29 30 0
-42 28 29 30 0
-40 31 32 33 0
-41 31 32 33 0
-42 31 32 33 0
-40 35 36 0
-41 34 36 0
-42 34 35 0
-40 37 38 39 0
-41 37 38 39 0
-42 37 38 39 0
-40 43 44 45 0
-41 43 44 45 0
-42 43 44 45 0
-40 46 47 48 0
-41 46 47 48 0
-42 46 47 48 0
-40 49 50 51 0
-41 49 50 51 0
-42 49 50 51 0
-40 52 53 54 0
-41 52 53 54 0
-42 52 53 54 0
-43 2 3 0
-44 1 3 0
-45 1 2 0
-43 5 6 0
-44 4 6 0
-45 4 5 0
-43 8 9 0
-44 7 9 0
-45 7 8 0
-43 11 12 0
-44 10 12 0
-45 10 11 0
-43 13 14 15 0
-44 13 14 15 0
-45 13 14 15 0
-43 16 17 18 0
-44 16 17 18 0
-45 16 17 18 0
-43 20 21 0
-44 19 21 0
-45 19 20 0
-43 22 23 24 0
-44 22 23 24 0
-45 22 23 24 0
-43 25 26 27 0
-44 25 26 27 0
-45 25 26 27 0
-43 29 30 0
-44 28 30 0
-45 28 29 0
-43 32 33 0
-44 31 33 0
-45 31 32 0
-43 34 35 36 0
-44 34 35 36 0
-45 34 35 36 0
-43 37 38 39 0
-44 37 38 39 0
-45 37 38 39 0
-43 40 41 42 0
-44 40 41 42 0
-45 40 41 42 0
-43 46 47 48 0
-44 46 47 48 0
-45 46 47 48 0
-43 50 51 0
-44 49 51 0
-45 49 50 0
-43 52 53 54 0
-44 52 53 54 0
-45 52 53 54 0
-46 2 3 0
-47 1 3 0
-48 1 2 0
-46 4 5 6 0
-47 4 5 6 0
-48 4 5 6 0
-46 7 8 9 0
-47 7 8 9 0
-48 7 8 9 0
-46 10 11 12 0
-47 10 11 12 0
-48 10 11 12 0
-46 13 14 15 0
-47 13 14 15 0
-48 13 14 15 0
-46 17 18 0
-47 16 18 0
-48 16 17 0
-46 19 20 21 0
-47 19 20 21 0
-48 19 20 21 0
-46 22 23 24 0
-47 22 23 24 0
-48 22 23 24 0
-46 25 26 27 0
-47 25 26 27 0
-48 25 26 27 0
-46 28 29 30 0
-47 28 29 30 0
-48 28 29 30 0
-46 31 32 33 0
-47 31 32 33 0
-48 31 32 33 0
-46 34 35 36 0
-47 34 35 36 0
-48 34 35 36 0
-46 37 38 39 0
-47 37 38 39 0
-48 37 38 39 0
-46 40 41 42 0
-47 40 41 42 0
-48 40 41 42 0
-46 43 44 45 0
-47 43 44 45 0
-48 43 44 45 0
-46 50 51 0
-47 49 51 0
-48 49 50 0
-46 52 53 54 0
-47 52 53 54 0
-48 52 53 54 0
-49 1 2 3 0
-50 1 2 3 0
-51 1 2 3 0
-49 5 6 0
-50 4 6 0
-51 4 5 0
-49 7 8 9 0
-50 7 8 9 0
-51 7 8 9 0
-49 11 12 0
-50 10 12 0
-51 10 11 0
-49 13 14 15 0
-50 13 14 15 0
-51 13 14 15 0
-49 16 17 18 0
-50 16 17 18 0
-51 16 17 18 0
-49 19 20 21 0
-50 19 20 21 0
-51 19 20 21 0
-49 23 24 0
-50 22 24 0
-51 22 23 0
-49 25 26 27 0
-50 25 26 27 0
-51 25 26 27 0
-49 28 29 30 0
-50 28 29 30 0
-51 28 29 30 0
-49 32 33 0
-50 31 33 0
-51 31 32 0
-49 34 35 36 0
-50 34 35 36 0
-51 34 35 36 0
-49 37 38 39 0
-50 37 38 39 0
-51 37 38 39 0
-49 40 41 42 0
-50 40 41 42 0
-51 40 41 42 0
-49 44 45 0
-50 43 45 0
-51 43 44 0
-49 47 48 0
-50 46 48 0
-51 46 47 0
-49 53 54 0
-50 52 54 0
-51 52 53 0
-52 1 2 3 0
-53 1 2 3 0
-54 1 2 3 0
-52 4 5 6 0
-53 4 5 6 0
-54 4 5 6 0
-52 7 8 9 0
-53 7 8 9 0
-54 7 8 9 0
-52 10 11 12 0
-53 10 11 12 0
-54 10 11 12 0
-52 14 15 0
-53 13 15 0
-54 13 14 0
-52 16 17 18 0
-53 16 17 18 0
-54 16 17 18 0
-52 19 20 21 0
-53 19 20 21 0
-54 19 20 21 0
-52 23 24 0
-53 22 24 0
-54 22 23 0
-52 25 26 27 0
-53 25 26 27 0
-54 25 26 27 0
-52 28 29 30 0
-53 28 29 30 0
-54 28 29 30 0
-52 31 32 33 0
-53 31 32 33 0
-54 31 32 33 0
-52 34 35 36 0
-53 34 35 36 0
-54 34 35 36 0
-52 38 39 0
-53 37 39 0
-54 37 38 0
-52 40 41 42 0
-53 40 41 42 0
-54 40 41 42 0
-52 43 44 45 0
-53 43 44 45 0
-54 43 44 45 0
-52 46 47 48 0
-53 46 47 48 0
-54 46 47 48 0
-52 50 51 0
-53 49 51 0
-54 49 50 0
